experiments/21_JSA_experiments/solutions/scalability_ilp_20-36/imx8a/IN_20_6.json-ILP-SM-II.out.log
Academic license - for non-commercial use only - expires 2022-11-10
Using license file /home/benedond/Apps/gurobi/gurobi950/gurobi.lic
Using gurobi.env file
Set parameter Threads to value 1
Changed value of parameter TimeLimit to 1200.0
   Prev: inf  Min: 0.0  Max: inf  Default: inf
Gurobi Optimizer version 9.1.2 build v9.1.2rc0 (linux64)
Thread count: 2 physical cores, 4 logical processors, using up to 1 threads
Optimize a model with 1007 rows, 906 columns and 4302 nonzeros
Model fingerprint: 0x2809154e
Variable types: 40 continuous, 866 integer (866 binary)
Coefficient statistics:
  Matrix range     [2e-01, 5e+02]
  Objective range  [8e-03, 5e-01]
  Bounds range     [1e+00, 1e+00]
  RHS range        [1e+00, 9e+02]
Found heuristic solution: objective 5.3114043
Presolve removed 227 rows and 73 columns
Presolve time: 0.06s
Presolved: 780 rows, 833 columns, 3800 nonzeros
Found heuristic solution: objective 5.2672341
Variable types: 39 continuous, 794 integer (794 binary)

Root relaxation: objective 2.556051e+00, 811 iterations, 0.02 seconds

    Nodes    |    Current Node    |     Objective Bounds      |     Work
 Expl Unexpl |  Obj  Depth IntInf | Incumbent    BestBd   Gap | It/Node Time

     0     0    2.55605    0   86    5.26723    2.55605  51.5%     -    0s
H    0     0                       5.0567766    2.55605  49.5%     -    0s
     0     0    2.74276    0   83    5.05678    2.74276  45.8%     -    0s
H    0     0                       3.9284043    2.74276  30.2%     -    0s
     0     0    2.87007    0  114    3.92840    2.87007  26.9%     -    0s
H    0     0                       3.8913936    2.87007  26.2%     -    0s
     0     0    2.87664    0  111    3.89139    2.87664  26.1%     -    0s
     0     0    2.87755    0  118    3.89139    2.87755  26.1%     -    0s
     0     0    2.99167    0   84    3.89139    2.99167  23.1%     -    0s
     0     0    3.01120    0  102    3.89139    3.01120  22.6%     -    0s
     0     0    3.01281    0  101    3.89139    3.01281  22.6%     -    0s
     0     0    3.01293    0  102    3.89139    3.01293  22.6%     -    0s
     0     0    3.09351    0   87    3.89139    3.09351  20.5%     -    0s
H    0     0                       3.8452660    3.09351  19.6%     -    0s
     0     0    3.10458    0  104    3.84527    3.10458  19.3%     -    0s
     0     0    3.10614    0  113    3.84527    3.10614  19.2%     -    0s
     0     0    3.10678    0   90    3.84527    3.10678  19.2%     -    0s
     0     0    3.10694    0   83    3.84527    3.10694  19.2%     -    0s
     0     0    3.12727    0   91    3.84527    3.12727  18.7%     -    0s
     0     0    3.12996    0  112    3.84527    3.12996  18.6%     -    0s
     0     0    3.13163    0  101    3.84527    3.13163  18.6%     -    0s
     0     0    3.13413    0   96    3.84527    3.13413  18.5%     -    0s
     0     0    3.13622    0  103    3.84527    3.13622  18.4%     -    0s
     0     0    3.13741    0  103    3.84527    3.13741  18.4%     -    0s
     0     0    3.13744    0  104    3.84527    3.13744  18.4%     -    0s
     0     0    3.14650    0  114    3.84527    3.14650  18.2%     -    0s
     0     0    3.14721    0  132    3.84527    3.14721  18.2%     -    0s
     0     0    3.14742    0  118    3.84527    3.14742  18.1%     -    0s
     0     0    3.15470    0  105    3.84527    3.15470  18.0%     -    0s
     0     0    3.15680    0  100    3.84527    3.15680  17.9%     -    0s
     0     0    3.15713    0  100    3.84527    3.15713  17.9%     -    0s
     0     0    3.15859    0  123    3.84527    3.15859  17.9%     -    0s
     0     0    3.15859    0  123    3.84527    3.15859  17.9%     -    0s
H    0     0                       3.7267128    3.15859  15.2%     -    0s
     0     2    3.16040    0  120    3.72671    3.16040  15.2%     -    0s
H   26    25                       3.6499574    3.20389  12.2%   106    0s
H  104    52                       3.6492447    3.20958  12.0%  89.7    1s
*  130    59              24       3.6484574    3.20958  12.0%  80.8    1s
H  131    58                       3.6477447    3.20958  12.0%  80.2    1s
H  201    51                       3.5550532    3.25130  8.54%  79.8    1s
*  211    53              13       3.5550531    3.25130  8.54%  78.1    1s
H  230    62                       3.5550531    3.27361  7.92%  78.6    1s

Cutting planes:
  Gomory: 1
  Cover: 31
  Implied bound: 28
  Clique: 22
  MIR: 105
  StrongCG: 4
  GUB cover: 1
  Mod-K: 1
  RLT: 30
  Relax-and-lift: 141

Explored 1121 nodes (63669 simplex iterations) in 3.83 seconds
Thread count was 1 (of 4 available processors)

Solution count 10: 3.55505 3.55505 3.64774 ... 3.9284

Optimal solution found (tolerance 1.00e-04)
Best objective 3.555053116313e+00, best bound 3.555053116313e+00, gap 0.0000%
